benchmarks/VRPTW/TSPTW/solution/n100w100.002.txt.solution
1 40 59 70 54 85 51 2 14 32 12 58 73 18 87 31 36 45 11 92 83 38 97 17 27 89 29 37 53 28 46 88 90 84 33 64 8 44 94 7 48 24 49 34 82 26 47 22 41 72 96 68 30 63 15 69 10 55 21 75 13 56 80 61 66 100 76 74 60 20 79 43 42 95 98 91 93 62 16 67 50 19 39 78 6 81 23 3 65 25 99 52 4 35 86 5 101 71 57 9 77 
619
